PROBLEM NAME: eil51_n6
KNAPSACK DATA TYPE: multiple strongly correlated
DIMENSION: 6
NUMBER OF ITEMS: 50
CAPACITY OF KNAPSACK: 23146
MIN SPEED: 0.1
MAX SPEED: 1
RENTING RATIO: 46.15
EDGE_WEIGHT_TYPE: CEIL_2D
NODE_COORD_SECTION	(INDEX, X, Y):
1	31	62
2	52	41
3	27	23
4	57	58
5	62	42
6	43	67
ITEMS SECTION	(INDEX, PROFIT, WEIGHT, ASSIGNED NODE NUMBER):
1	1254	954	6
2	1171	971	6
3	1125	925	6
4	1103	903	6
5	1099	899	6
6	1098	898	6
7	1091	891	6
8	1087	887	6
9	1067	867	6
10	1032	832	6
11	1032	832	4
12	1029	829	4
13	1008	808	4
14	1001	801	4
15	927	727	4
16	916	716	4
17	910	710	4
18	832	632	4
19	802	602	4
20	772	572	4
21	750	450	5
22	748	548	5
23	737	537	5
24	718	518	5
25	714	514	5
26	648	348	5
27	645	445	5
28	634	434	5
29	631	431	5
30	606	406	5
31	583	383	2
32	583	383	2
33	577	377	2
34	543	343	2
35	508	308	2
36	507	307	2
37	481	281	2
38	472	272	2
39	444	244	2
40	439	239	2
41	438	138	3
42	418	218	3
43	412	212	3
44	365	165	3
45	347	147	3
46	333	133	3
47	316	116	3
48	311	111	3
49	306	106	3
50	291	91	3
